results/x-filo1/X-n120-k6.vrp_seed-24.vrp.sol
Route #1: 99 9 44 18 75 46 66 108 117 26 5 47 101 105 104 63 51 89 85 53 8
Route #2: 50 52 31 73 25 29 80 16 84 94 119 61 116 20
Route #3: 107 96 71 112 62 40 6 92 35 37 24 1 56 11 27 34 111 102 72 87 54
Route #4: 30 118 23 14 58 15 83 28 19 97 7 106 110 74 65 86 48 115 36 33 67
Route #5: 45 3 114 90 57 77 100 59 22 4 95 60 68 81 69 41 103 17 13 98 49
Route #6: 10 93 55 70 78 39 42 109 82 64 113 76 43 2 12 79 21 91 32 38 88
Cost 13354.000000