results/x-long/X-n120-k6.vrp_seed-24.out
13332	1082
